(set-info :source |printed by MathSAT|)
(declare-fun param_e8 () Bool)
(declare-fun call_ticket3i.flby4 () Int)
(declare-fun call_ticket3i.p3 () Int)
(declare-fun call_ticket3i.ite21 () Int)
(declare-fun call_ticket3i.ite22 () Int)
(declare-fun call_ticket3i.g5 () Bool)
(declare-fun call_ticket3i.ite23 () Int)
(declare-fun env () Bool)
(declare-fun _OK_ () Bool)
(declare-fun call_ticket3i.flby6 () Int)
(declare-fun call_ticket3i.ite () Bool)
(declare-fun param_e1 () Bool)
(declare-fun call_ticket3i.g4 () Bool)
(declare-fun call_ticket3i.a3 () Int)
(declare-fun call_ticket3i.p1 () Int)
(declare-fun call_ticket3i.g1 () Bool)
(declare-fun erreur_ticket3i () Bool)
(declare-fun call_ticket3i.g9 () Bool)
(declare-fun param_e3 () Bool)
(declare-fun call_ticket3i.ite36 () Int)
(declare-fun call_ticket3i.ite6 () Int)
(declare-fun call_ticket3i.ite35 () Int)
(declare-fun p2 () Int)
(declare-fun call_ticket3i.ite19 () Int)
(declare-fun call_ticket3i.a1 () Int)
(declare-fun call_ticket3i.g7 () Bool)
(declare-fun call_ticket3i.ite11 () Int)
(declare-fun call_ticket3i.ite5 () Int)
(declare-fun call_ticket3i.flby8 () Int)
(declare-fun call_ticket3i.ite26 () Int)
(declare-fun a2 () Int)
(declare-fun call_ticket3i.ite25 () Int)
(declare-fun call_ticket3i.ite27 () Int)
(declare-fun call_ticket3i.ite37 () Int)
(declare-fun call_ticket3i.ite16 () Int)
(declare-fun t () Int)
(declare-fun call_ticket3i.flby7 () Int)
(declare-fun call_ticket3i.ite30 () Int)
(declare-fun call_ticket3i.flby5 () Int)
(declare-fun call_ticket3i.ite10 () Int)
(declare-fun call_ticket3i.ite33 () Int)
(declare-fun call_ticket3i.flby () Int)
(declare-fun call_ticket3i.ite12 () Int)
(declare-fun param_init_a1 () Int)
(declare-fun param_init_t () Int)
(declare-fun s () Int)
(declare-fun param_e4 () Bool)
(declare-fun call_ticket3i.ite24 () Int)
(declare-fun param_e5 () Bool)
(declare-fun p1 () Int)
(declare-fun call_ticket3i.ite15 () Int)
(declare-fun call_ticket3i.ite14 () Int)
(declare-fun call_ticket3i.ite29 () Int)
(declare-fun call_ticket3i.p2 () Int)
(declare-fun call_ticket3i.ite32 () Int)
(declare-fun param_init_a2 () Int)
(declare-fun p3 () Int)
(declare-fun call_ticket3i.ite13 () Int)
(declare-fun call_ticket3i.g2 () Bool)
(declare-fun call_ticket3i.ite4 () Int)
(declare-fun call_ticket3i.flby3 () Int)
(declare-fun call_ticket3i.ite3 () Int)
(declare-fun call_ticket3i.g3 () Bool)
(declare-fun call_ticket3i.ite7 () Int)
(declare-fun call_excludes9.excludes () Bool)
(declare-fun call_ticket3i.ite34 () Int)
(declare-fun call_ticket3i.g6 () Bool)
(declare-fun call_ticket3i.ite2 () Int)
(declare-fun call_ticket3i.a2 () Int)
(declare-fun call_Sofar.flby () Bool)
(declare-fun call_Sofar.Sofar () Bool)
(declare-fun a3 () Int)
(declare-fun call_ticket3i.erreur_ticket3i () Bool)
(declare-fun call_ticket3i.flby2 () Int)
(declare-fun param_init_a3 () Int)
(declare-fun call_ticket3i.ite17 () Int)
(declare-fun call_ticket3i.ite20 () Int)
(declare-fun param_e9 () Bool)
(declare-fun call_ticket3i.ite28 () Int)
(declare-fun call_ticket3i.g8 () Bool)
(declare-fun call_ticket3i.ite31 () Int)
(declare-fun param_e6 () Bool)
(declare-fun call_ticket3i.s () Int)
(declare-fun call_ticket3i.t () Int)
(declare-fun param_e2 () Bool)
(declare-fun call_ticket3i.ite8 () Int)
(declare-fun a1 () Int)
(declare-fun call_ticket3i.ite9 () Int)
(declare-fun param_e7 () Bool)
(declare-fun call_ticket3i.ite18 () Int)
(define-fun .def_1252 () Bool (= call_Sofar.flby call_Sofar.Sofar))
(define-fun .def_1116 () Bool (not param_e2))
(define-fun .def_919 () Bool (not param_e1))
(define-fun .def_1189 () Bool (and .def_919 .def_1116))
(define-fun .def_926 () Bool (not param_e3))
(define-fun .def_1190 () Bool (and .def_926 .def_1189))
(define-fun .def_933 () Bool (not param_e4))
(define-fun .def_1191 () Bool (and .def_933 .def_1190))
(define-fun .def_1148 () Bool (not param_e5))
(define-fun .def_1192 () Bool (and .def_1148 .def_1191))
(define-fun .def_940 () Bool (not param_e6))
(define-fun .def_1193 () Bool (and .def_940 .def_1192))
(define-fun .def_896 () Bool (not param_e7))
(define-fun .def_1194 () Bool (and .def_896 .def_1193))
(define-fun .def_1062 () Bool (not param_e8))
(define-fun .def_1195 () Bool (and .def_1062 .def_1194))
(define-fun .def_907 () Bool (not param_e9))
(define-fun .def_1240 () Bool (and .def_907 .def_1195))
(define-fun .def_1232 () Bool (and param_e1 .def_1116))
(define-fun .def_1233 () Bool (and .def_926 .def_1232))
(define-fun .def_1234 () Bool (and .def_933 .def_1233))
(define-fun .def_1235 () Bool (and .def_1148 .def_1234))
(define-fun .def_1236 () Bool (and .def_940 .def_1235))
(define-fun .def_1237 () Bool (and .def_896 .def_1236))
(define-fun .def_1238 () Bool (and .def_1062 .def_1237))
(define-fun .def_1239 () Bool (and .def_907 .def_1238))
(define-fun .def_1241 () Bool (or .def_1239 .def_1240))
(define-fun .def_1224 () Bool (and .def_919 param_e2))
(define-fun .def_1225 () Bool (and .def_926 .def_1224))
(define-fun .def_1226 () Bool (and .def_933 .def_1225))
(define-fun .def_1227 () Bool (and .def_1148 .def_1226))
(define-fun .def_1228 () Bool (and .def_940 .def_1227))
(define-fun .def_1229 () Bool (and .def_896 .def_1228))
(define-fun .def_1230 () Bool (and .def_1062 .def_1229))
(define-fun .def_1231 () Bool (and .def_907 .def_1230))
(define-fun .def_1242 () Bool (or .def_1231 .def_1241))
(define-fun .def_1217 () Bool (and param_e3 .def_1189))
(define-fun .def_1218 () Bool (and .def_933 .def_1217))
(define-fun .def_1219 () Bool (and .def_1148 .def_1218))
(define-fun .def_1220 () Bool (and .def_940 .def_1219))
(define-fun .def_1221 () Bool (and .def_896 .def_1220))
(define-fun .def_1222 () Bool (and .def_1062 .def_1221))
(define-fun .def_1223 () Bool (and .def_907 .def_1222))
(define-fun .def_1243 () Bool (or .def_1223 .def_1242))
(define-fun .def_1211 () Bool (and param_e4 .def_1190))
(define-fun .def_1212 () Bool (and .def_1148 .def_1211))
(define-fun .def_1213 () Bool (and .def_940 .def_1212))
(define-fun .def_1214 () Bool (and .def_896 .def_1213))
(define-fun .def_1215 () Bool (and .def_1062 .def_1214))
(define-fun .def_1216 () Bool (and .def_907 .def_1215))
(define-fun .def_1244 () Bool (or .def_1216 .def_1243))
(define-fun .def_1206 () Bool (and param_e5 .def_1191))
(define-fun .def_1207 () Bool (and .def_940 .def_1206))
(define-fun .def_1208 () Bool (and .def_896 .def_1207))
(define-fun .def_1209 () Bool (and .def_1062 .def_1208))
(define-fun .def_1210 () Bool (and .def_907 .def_1209))
(define-fun .def_1245 () Bool (or .def_1210 .def_1244))
(define-fun .def_1202 () Bool (and param_e6 .def_1192))
(define-fun .def_1203 () Bool (and .def_896 .def_1202))
(define-fun .def_1204 () Bool (and .def_1062 .def_1203))
(define-fun .def_1205 () Bool (and .def_907 .def_1204))
(define-fun .def_1246 () Bool (or .def_1205 .def_1245))
(define-fun .def_1199 () Bool (and param_e7 .def_1193))
(define-fun .def_1200 () Bool (and .def_1062 .def_1199))
(define-fun .def_1201 () Bool (and .def_907 .def_1200))
(define-fun .def_1247 () Bool (or .def_1201 .def_1246))
(define-fun .def_1197 () Bool (and param_e8 .def_1194))
(define-fun .def_1198 () Bool (and .def_907 .def_1197))
(define-fun .def_1248 () Bool (or .def_1198 .def_1247))
(define-fun .def_1196 () Bool (and param_e9 .def_1195))
(define-fun .def_1249 () Bool (or .def_1196 .def_1248))
(define-fun .def_1250 () Bool (= call_excludes9.excludes .def_1249))
(define-fun .def_1187 () Bool (= call_ticket3i.erreur_ticket3i call_ticket3i.ite))
(define-fun .def_1185 () Bool (= call_ticket3i.flby8 call_ticket3i.a3))
(define-fun .def_1183 () Bool (= call_ticket3i.flby7 call_ticket3i.a2))
(define-fun .def_1181 () Bool (= call_ticket3i.flby6 call_ticket3i.a1))
(define-fun .def_1179 () Bool (= call_ticket3i.flby5 call_ticket3i.s))
(define-fun .def_1177 () Bool (= call_ticket3i.flby4 call_ticket3i.t))
(define-fun .def_1175 () Bool (= call_ticket3i.flby3 call_ticket3i.p3))
(define-fun .def_1173 () Bool (= call_ticket3i.flby2 call_ticket3i.p2))
(define-fun .def_1170 () Bool (= call_ticket3i.flby call_ticket3i.p1))
(define-fun .def_1164 () Bool (<= 3 call_ticket3i.p3))
(define-fun .def_1162 () Bool (<= 3 call_ticket3i.p2))
(define-fun .def_1161 () Bool (<= 3 call_ticket3i.p1))
(define-fun .def_1163 () Bool (or .def_1161 .def_1162))
(define-fun .def_1165 () Bool (or .def_1163 .def_1164))
(define-fun .def_1167 () Bool (not .def_1165))
(define-fun .def_1168 () Bool (or call_ticket3i.ite .def_1167))
(define-fun .def_1160 () Bool (not call_ticket3i.ite))
(define-fun .def_1166 () Bool (or .def_1160 .def_1165))
(define-fun .def_1169 () Bool (and .def_1166 .def_1168))
(define-fun .def_1171 () Bool (and .def_1169 .def_1170))
(define-fun .def_1155 () Bool (= call_ticket3i.ite30 call_ticket3i.ite27))
(define-fun .def_1156 () Bool (or .def_940 .def_1155))
(define-fun .def_1152 () Bool (= call_ticket3i.ite29 call_ticket3i.ite30))
(define-fun .def_1153 () Bool (or param_e6 .def_1152))
(define-fun .def_1157 () Bool (and .def_1153 .def_1156))
(define-fun .def_1147 () Bool (= call_ticket3i.ite9 call_ticket3i.ite12))
(define-fun .def_1149 () Bool (or .def_1147 .def_1148))
(define-fun .def_1144 () Bool (= call_ticket3i.ite11 call_ticket3i.ite12))
(define-fun .def_1146 () Bool (or .def_1144 param_e5))
(define-fun .def_1150 () Bool (and .def_1146 .def_1149))
(define-fun .def_1140 () Bool (= call_ticket3i.ite23 call_ticket3i.ite24))
(define-fun .def_1141 () Bool (or param_e4 .def_1140))
(define-fun .def_1137 () Bool (= call_ticket3i.ite24 call_ticket3i.ite21))
(define-fun .def_1138 () Bool (or .def_933 .def_1137))
(define-fun .def_1133 () Bool (= call_ticket3i.ite8 call_ticket3i.ite13))
(define-fun .def_1134 () Bool (or .def_933 .def_1133))
(define-fun .def_1131 () Bool (= call_ticket3i.ite13 call_ticket3i.ite12))
(define-fun .def_1132 () Bool (or param_e4 .def_1131))
(define-fun .def_1135 () Bool (and .def_1132 .def_1134))
(define-fun .def_1139 () Bool (and .def_1135 .def_1138))
(define-fun .def_1142 () Bool (and .def_1139 .def_1141))
(define-fun .def_1125 () Bool (= call_ticket3i.ite31 call_ticket3i.ite26))
(define-fun .def_1126 () Bool (or .def_926 .def_1125))
(define-fun .def_1122 () Bool (= call_ticket3i.ite31 call_ticket3i.ite30))
(define-fun .def_1123 () Bool (or param_e3 .def_1122))
(define-fun .def_1127 () Bool (and .def_1123 .def_1126))
(define-fun .def_1115 () Bool (= call_ticket3i.ite3 call_ticket3i.ite6))
(define-fun .def_1117 () Bool (or .def_1115 .def_1116))
(define-fun .def_1112 () Bool (= call_ticket3i.ite5 call_ticket3i.ite6))
(define-fun .def_1114 () Bool (or .def_1112 param_e2))
(define-fun .def_1118 () Bool (and .def_1114 .def_1117))
(define-fun .def_1108 () Bool (= call_ticket3i.ite25 call_ticket3i.ite24))
(define-fun .def_1109 () Bool (or param_e1 .def_1108))
(define-fun .def_1104 () Bool (= call_ticket3i.ite20 call_ticket3i.ite25))
(define-fun .def_1105 () Bool (or .def_919 .def_1104))
(define-fun .def_1099 () Bool (= call_ticket3i.ite2 call_ticket3i.ite7))
(define-fun .def_1100 () Bool (or .def_919 .def_1099))
(define-fun .def_1097 () Bool (= call_ticket3i.ite7 call_ticket3i.ite6))
(define-fun .def_1098 () Bool (or param_e1 .def_1097))
(define-fun .def_1101 () Bool (and .def_1098 .def_1100))
(define-fun .def_1106 () Bool (and .def_1101 .def_1105))
(define-fun .def_1110 () Bool (and .def_1106 .def_1109))
(define-fun .def_1093 () Bool (= env call_Sofar.Sofar))
(define-fun .def_1090 () Bool (= erreur_ticket3i call_ticket3i.erreur_ticket3i))
(define-fun .def_1086 () Bool (= a3 call_ticket3i.a3))
(define-fun .def_1082 () Bool (= a2 call_ticket3i.a2))
(define-fun .def_1078 () Bool (= a1 call_ticket3i.a1))
(define-fun .def_1074 () Bool (= s call_ticket3i.s))
(define-fun .def_1070 () Bool (= call_ticket3i.t t))
(define-fun .def_1068 () Bool (= p3 call_ticket3i.p3))
(define-fun .def_1061 () Bool (= call_ticket3i.ite15 call_ticket3i.ite18))
(define-fun .def_1063 () Bool (or .def_1061 .def_1062))
(define-fun .def_1058 () Bool (= call_ticket3i.ite17 call_ticket3i.ite18))
(define-fun .def_1060 () Bool (or .def_1058 param_e8))
(define-fun .def_1064 () Bool (and .def_1060 .def_1063))
(define-fun .def_1056 () Bool (= p2 call_ticket3i.p2))
(define-fun .def_1052 () Bool (= p1 call_ticket3i.p1))
(define-fun .def_1046 () Bool (= call_ticket3i.ite14 call_ticket3i.ite19))
(define-fun .def_1047 () Bool (or .def_896 .def_1046))
(define-fun .def_1044 () Bool (= call_ticket3i.ite19 call_ticket3i.ite18))
(define-fun .def_1045 () Bool (or param_e7 .def_1044))
(define-fun .def_1048 () Bool (and .def_1045 .def_1047))
(define-fun .def_1039 () Bool (<= 0 t))
(define-fun .def_1037 () Bool (not env))
(define-fun .def_1040 () Bool (or .def_1037 .def_1039))
(define-fun .def_1041 () Bool (= _OK_ .def_1040))
(define-fun .def_1049 () Bool (and .def_1041 .def_1048))
(define-fun .def_1053 () Bool (and .def_1049 .def_1052))
(define-fun .def_1057 () Bool (and .def_1053 .def_1056))
(define-fun .def_1065 () Bool (and .def_1057 .def_1064))
(define-fun .def_1069 () Bool (and .def_1065 .def_1068))
(define-fun .def_1071 () Bool (and .def_1069 .def_1070))
(define-fun .def_1075 () Bool (and .def_1071 .def_1074))
(define-fun .def_1079 () Bool (and .def_1075 .def_1078))
(define-fun .def_1083 () Bool (and .def_1079 .def_1082))
(define-fun .def_1087 () Bool (and .def_1083 .def_1086))
(define-fun .def_1091 () Bool (and .def_1087 .def_1090))
(define-fun .def_1094 () Bool (and .def_1091 .def_1093))
(define-fun .def_1111 () Bool (and .def_1094 .def_1110))
(define-fun .def_1119 () Bool (and .def_1111 .def_1118))
(define-fun .def_1128 () Bool (and .def_1119 .def_1127))
(define-fun .def_1143 () Bool (and .def_1128 .def_1142))
(define-fun .def_1151 () Bool (and .def_1143 .def_1150))
(define-fun .def_1158 () Bool (and .def_1151 .def_1157))
(define-fun .def_1172 () Bool (and .def_1158 .def_1171))
(define-fun .def_1174 () Bool (and .def_1172 .def_1173))
(define-fun .def_1176 () Bool (and .def_1174 .def_1175))
(define-fun .def_1178 () Bool (and .def_1176 .def_1177))
(define-fun .def_1180 () Bool (and .def_1178 .def_1179))
(define-fun .def_1182 () Bool (and .def_1180 .def_1181))
(define-fun .def_1184 () Bool (and .def_1182 .def_1183))
(define-fun .def_1186 () Bool (and .def_1184 .def_1185))
(define-fun .def_1188 () Bool (and .def_1186 .def_1187))
(define-fun .def_1251 () Bool (and .def_1188 .def_1250))
(define-fun .def_1253 () Bool (and .def_1251 .def_1252))
(define-fun .def_1030 () Bool (<= 0 param_init_t))
(define-fun .def_1028 () Bool (<= 0 param_init_a3))
(define-fun .def_1026 () Bool (<= 0 param_init_a2))
(define-fun .def_1023 () Bool (<= 0 param_init_a1))
(define-fun .def_1025 () Bool (and .def_1023 call_excludes9.excludes))
(define-fun .def_1027 () Bool (and .def_1025 .def_1026))
(define-fun .def_1029 () Bool (and .def_1027 .def_1028))
(define-fun .def_1031 () Bool (and .def_1029 .def_1030))
(define-fun .def_1033 () Bool (= .def_1031 call_Sofar.flby))
(define-fun .def_1021 () Bool (= param_init_a3 call_ticket3i.flby8))
(define-fun .def_1017 () Bool (= param_init_a2 call_ticket3i.flby7))
(define-fun .def_1013 () Bool (= param_init_a1 call_ticket3i.flby6))
(define-fun .def_1009 () Bool (= call_ticket3i.t call_ticket3i.flby5))
(define-fun .def_1005 () Bool (= param_init_t call_ticket3i.flby4))
(define-fun .def_1001 () Bool (= call_ticket3i.flby3 0))
(define-fun .def_998 () Bool (= call_ticket3i.flby2 0))
(define-fun .def_995 () Bool (= call_ticket3i.flby 0))
(define-fun .def_991 () Bool (= call_ticket3i.ite16 0))
(define-fun .def_990 () Bool (not call_ticket3i.g9))
(define-fun .def_992 () Bool (or .def_990 .def_991))
(define-fun .def_986 () Bool (= call_ticket3i.ite15 2))
(define-fun .def_984 () Bool (not call_ticket3i.g8))
(define-fun .def_987 () Bool (or .def_984 .def_986))
(define-fun .def_980 () Bool (= call_ticket3i.ite14 1))
(define-fun .def_978 () Bool (not call_ticket3i.g7))
(define-fun .def_981 () Bool (or .def_978 .def_980))
(define-fun .def_974 () Bool (= call_ticket3i.ite10 0))
(define-fun .def_973 () Bool (not call_ticket3i.g6))
(define-fun .def_975 () Bool (or .def_973 .def_974))
(define-fun .def_969 () Bool (= call_ticket3i.ite9 2))
(define-fun .def_967 () Bool (not call_ticket3i.g5))
(define-fun .def_970 () Bool (or .def_967 .def_969))
(define-fun .def_963 () Bool (= call_ticket3i.ite8 1))
(define-fun .def_961 () Bool (not call_ticket3i.g4))
(define-fun .def_964 () Bool (or .def_961 .def_963))
(define-fun .def_957 () Bool (= call_ticket3i.ite4 0))
(define-fun .def_956 () Bool (not call_ticket3i.g3))
(define-fun .def_958 () Bool (or .def_956 .def_957))
(define-fun .def_952 () Bool (= call_ticket3i.ite3 2))
(define-fun .def_950 () Bool (not call_ticket3i.g2))
(define-fun .def_953 () Bool (or .def_950 .def_952))
(define-fun .def_946 () Bool (= call_ticket3i.ite2 1))
(define-fun .def_944 () Bool (not call_ticket3i.g1))
(define-fun .def_947 () Bool (or .def_944 .def_946))
(define-fun .def_938 () Bool (= call_ticket3i.ite10 call_ticket3i.ite11))
(define-fun .def_941 () Bool (or .def_938 .def_940))
(define-fun .def_931 () Bool (= call_ticket3i.ite35 call_ticket3i.ite34))
(define-fun .def_934 () Bool (or .def_931 .def_933))
(define-fun .def_924 () Bool (= call_ticket3i.ite4 call_ticket3i.ite5))
(define-fun .def_927 () Bool (or .def_924 .def_926))
(define-fun .def_917 () Bool (= call_ticket3i.ite33 call_ticket3i.ite32))
(define-fun .def_920 () Bool (or .def_917 .def_919))
(define-fun .def_911 () Bool (= call_ticket3i.ite16 call_ticket3i.ite17))
(define-fun .def_912 () Bool (or .def_907 .def_911))
(define-fun .def_905 () Bool (= call_ticket3i.ite28 call_ticket3i.ite29))
(define-fun .def_908 () Bool (or .def_905 .def_907))
(define-fun .def_913 () Bool (and .def_908 .def_912))
(define-fun .def_900 () Bool (= call_ticket3i.ite22 call_ticket3i.ite23))
(define-fun .def_901 () Bool (or .def_896 .def_900))
(define-fun .def_894 () Bool (= call_ticket3i.ite37 call_ticket3i.ite36))
(define-fun .def_897 () Bool (or .def_894 .def_896))
(define-fun .def_902 () Bool (and .def_897 .def_901))
(define-fun .def_914 () Bool (and .def_902 .def_913))
(define-fun .def_921 () Bool (and .def_914 .def_920))
(define-fun .def_928 () Bool (and .def_921 .def_927))
(define-fun .def_935 () Bool (and .def_928 .def_934))
(define-fun .def_942 () Bool (and .def_935 .def_941))
(define-fun .def_948 () Bool (and .def_942 .def_947))
(define-fun .def_954 () Bool (and .def_948 .def_953))
(define-fun .def_959 () Bool (and .def_954 .def_958))
(define-fun .def_965 () Bool (and .def_959 .def_964))
(define-fun .def_971 () Bool (and .def_965 .def_970))
(define-fun .def_976 () Bool (and .def_971 .def_975))
(define-fun .def_982 () Bool (and .def_976 .def_981))
(define-fun .def_988 () Bool (and .def_982 .def_987))
(define-fun .def_993 () Bool (and .def_988 .def_992))
(define-fun .def_996 () Bool (and .def_993 .def_995))
(define-fun .def_999 () Bool (and .def_996 .def_998))
(define-fun .def_1002 () Bool (and .def_999 .def_1001))
(define-fun .def_1006 () Bool (and .def_1002 .def_1005))
(define-fun .def_1010 () Bool (and .def_1006 .def_1009))
(define-fun .def_1014 () Bool (and .def_1010 .def_1013))
(define-fun .def_1018 () Bool (and .def_1014 .def_1017))
(define-fun .def_1022 () Bool (and .def_1018 .def_1021))
(define-fun .def_1034 () Bool (and .def_1022 .def_1033))
(define-fun .def_1254 () Bool (and .def_1034 .def_1253))
(assert .def_1254)
